unsat
(:cnf-encoding-aux-vars 27
 :elim-unconstrained    5
 :max-memory            18.84
 :memory                18.54
 :nlsat-arith-var       10
 :nlsat-atoms           71
 :nlsat-bool-var        36
 :nlsat-clauses         180
 :nlsat-conflicts       7
 :nlsat-decisions       8
 :nlsat-propagations    33
 :num-allocs            136680
 :rlimit-count          27847
 :solve-eqs-elim-vars   59
 :solve-eqs-steps       209
 :time                  0.01
 :total-time            0.03)
